109,98
28,79
86,16
123,83
186,22
5,97
151,95
176,61
82,16
117,93
85,46
33,76
147,34
95,94
27,58
30,15
192,78
185,81
53,8
10,37
153,25
1,47
107,43
8,58
23,10
96,98
49,46
118,20
128,3
4,21
41,61
50,12
41,100
70,24
167,65
196,34
71,34
25,84
121,46
48,22
141,97
6,21
127,35
166,58
159,67
102,33
78,89
176,83
66,90
150,35
